(set-option :incremental false)
(set-logic ALL)
(declare-const BAV1 Bool)
(declare-const GEN3 Int)
(declare-const GEN2 Int)
(declare-const GEN1 Int)
(declare-fun v1 () (_ BitVec 4))
(assert (= BAV1 (= (bvnot (ite (bvslt v1 (_ bv0 4)) (_ bv1 1) (_ bv0 1))) (bvneg (ite (bvslt v1 (_ bv0 4)) (_ bv1 1) (_ bv0 1))))))
(check-sat-assuming ((= (bvnot (ite (bvslt v1 (_ bv0 4)) (_ bv1 1) (_ bv0 1))) (bvneg (ite (bvslt v1 (_ bv0 4)) (_ bv1 1) (_ bv0 1))))))
(get-model)